p cnf 22 62
1 2 0
3 4 0
5 6 0
7 8 0
9 10 0
11 12 0
13 14 0
15 16 0
17 18 0
19 20 0
21 22 0
-1 -2 0
-3 -4 0
-5 -6 0
-7 -8 0
-9 -10 0
-11 -12 0
-13 -14 0
-15 -16 0
-17 -18 0
-19 -20 0
-21 -22 0
-1 -3 0
-2 -4 0
-1 -7 0
-2 -8 0
-1 -13 0
-2 -14 0
-1 -17 0
-2 -18 0
-3 -5 0
-4 -6 0
-3 -11 0
-4 -12 0
-3 -15 0
-4 -16 0
-5 -9 0
-6 -10 0
-5 -13 0
-6 -14 0
-5 -19 0
-6 -20 0
-7 -9 0
-8 -10 0
-7 -11 0
-8 -12 0
-7 -19 0
-8 -20 0
-9 -15 0
-10 -16 0
-9 -17 0
-10 -18 0
-11 -21 0
-12 -22 0
-13 -21 0
-14 -22 0
-15 -21 0
-16 -22 0
-17 -21 0
-18 -22 0
-19 -21 0
-20 -22 0